0 472
4 456
5 452
7 418
8 404
11 388
12 380
15 372
16 358
21 352
22 344
28 342
36 330
51 328
63 312
66 300
69 296
71 294
87 282
94 272
102 270
119 266
134 260
140 252
142 248
159 236
163 232
172 228
197 224
204 220
211 216
227 214
232 210
311 206
419 196
461 192
777 190
858 188
860 186
915 182
974 174
1011 172
1352 166
1593 162
